Normalized Data/p01_1030_tsplib0_normalized.txt
NAME: p01_1030_tsplib0_NORMALIZED
BEST_KNOWN: 0
COMMENT: 0
DIMENSION: 51
CAPACITY: 100
EDGE_WEIGHT_FORMAT: FUNCTION
EDGE_WEIGHT_TYPE: EXACT_2D
NODE_COORD_SECTION
1 0 0
2 7 12
3 19 9
4 22 24
5 -10 -14
6 10 -10
7 -9 7
8 -13 23
9 1 22
10 22 -7
11 21 -19
12 12 1
13 1 -8
14 -25 -15
15 -18 2
16 6 -24
17 22 1
18 -3 -17
19 -13 -7
20 -17 -27
21 27 18
22 32 2
23 12 17
24 -14 17
25 -22 12
26 -23 -2
27 -3 28
28 0 8
29 13 27
30 28 8
31 28 -13
32 7 29
33 8 6
34 16 -30
35 31 -7
36 32 23
37 33 29
38 2 -18
39 15 -5
40 29 -25
41 -25 -34
42 -20 -23
43 -9 -30
44 -25 24
45 0 -25
46 9 -30
47 2 -1
48 -5 -8
49 -5 15
50 18 -12
51 26 -3
DEMAND_SECTION
1 0
2 26
3 17
4 14
5 20
6 28
7 26
8 19
9 11
10 13
11 10
12 25
13 17
14 18
15 20
16 23
17 15
18 11
19 20
20 26
21 20
22 11
23 22
24 22
25 21
26 25
27 24
28 10
29 25
30 12
31 11
32 26
33 25
34 26
35 13
36 26
37 19
38 25
39 19
40 19
41 26
42 13
43 11
44 22
45 23
46 27
47 15
48 19
49 18
50 26
51 21
DEPOT_SECTION
1
-1
EOF