Normalized Data/p01_1030_tsplib0_normalized.sol
50 -1 22 32 -2 20 35 36 3 -5 49 38 11 -6 24 25 14 -9 30 34 50 21 29 16 -12 37 15 44 17 -13 41 40 19 42 -18 4 47 -23 43 7 48 -27 8 26 31 28 -45 33 39 10 46 0 





OBJ=
775.587
BEST_KNOWN=
0.000